10
[[-1, 39467, 31436, 39386, 37594, 34418, 37592, 27433, 24356, 39077],[39467, -1, 25305, 31211, 19830, 45619, 33767, 21834, 38934, 22494],[31436, 25305, -1, 25598, 24418, 24763, 45005, 31629, 25299, 8467],[39386, 31211, 25598, -1, 33883, 20982, 33058, 14248, 39406, 41946],[37594, 19830, 24418, 33883, -1, 44772, 20782, 16852, 42059, 28473],[34418, 45619, 24763, 20982, 44772, -1, 33734, 35249, 22799, 6373],[37592, 33767, 45005, 33058, 20782, 33734, -1, 42066, 41879, 19761],[27433, 21834, 31629, 14248, 16852, 35249, 42066, -1, 39437, 31125],[24356, 38934, 25299, 39406, 42059, 22799, 41879, 39437, -1, 35126],[39077, 22494, 8467, 41946, 28473, 6373, 19761, 31125, 35126, -1]]